c Created with the Wolfram Language : www.wolfram.com
c 
p edge 100 488
e 2 6
e 7 9
e 8 9
e 6 10
e 3 11
e 5 12
e 10 14
e 11 14
e 1 15
e 7 15
e 12 15
e 13 17
e 15 17
e 2 18
e 4 18
e 10 19
e 16 19
e 17 19
e 3 20
e 6 20
e 9 20
e 2 22
e 14 22
e 1 23
e 11 23
e 15 24
e 11 25
e 10 26
e 12 26
e 13 26
e 18 26
e 21 26
e 8 27
e 19 27
e 26 27
e 14 28
e 5 29
e 8 29
e 11 29
e 2 30
e 7 30
e 18 30
e 20 30
e 29 30
e 2 31
e 3 31
e 25 31
e 4 32
e 26 32
e 28 33
e 29 33
e 32 33
e 7 34
e 13 34
e 24 34
e 25 34
e 4 35
e 12 35
e 29 35
e 8 36
e 12 36
e 29 36
e 17 37
e 22 37
e 23 37
e 30 37
e 31 37
e 3 38
e 5 38
e 7 38
e 11 38
e 18 38
e 26 38
e 5 39
e 8 39
e 9 39
e 21 39
e 30 39
e 31 39
e 36 39
e 7 40
e 18 40
e 25 40
e 31 40
e 37 40
e 19 41
e 28 41
e 29 41
e 8 42
e 26 42
e 19 43
e 34 43
e 30 44
e 31 44
e 34 44
e 17 45
e 31 45
e 3 46
e 4 46
e 21 46
e 34 46
e 35 46
e 36 46
e 43 46
e 12 47
e 15 47
e 31 47
e 35 47
e 36 47
e 44 48
e 18 49
e 22 49
e 31 49
e 33 49
e 41 49
e 46 49
e 6 50
e 9 50
e 8 51
e 14 51
e 34 51
e 37 51
e 6 52
e 24 52
e 50 52
e 1 53
e 12 53
e 22 53
e 28 53
e 35 53
e 40 53
e 46 53
e 11 54
e 26 54
e 31 54
e 32 54
e 41 54
e 50 54
e 1 55
e 2 55
e 5 55
e 12 55
e 18 55
e 35 55
e 2 56
e 8 56
e 10 56
e 13 56
e 16 56
e 33 56
e 45 56
e 49 56
e 34 57
e 5 58
e 12 58
e 37 58
e 47 58
e 50 58
e 14 59
e 36 59
e 53 59
e 58 59
e 6 60
e 8 60
e 22 60
e 27 60
e 31 60
e 39 60
e 49 60
e 1 61
e 7 61
e 27 61
e 32 61
e 52 61
e 56 61
e 59 61
e 24 62
e 48 62
e 3 63
e 6 63
e 7 63
e 10 63
e 15 63
e 22 63
e 26 63
e 27 63
e 28 63
e 30 63
e 35 63
e 41 63
e 45 63
e 17 64
e 28 64
e 34 64
e 40 64
e 46 64
e 54 64
e 55 64
e 59 64
e 60 64
e 9 65
e 29 65
e 32 65
e 48 65
e 15 66
e 23 66
e 35 66
e 36 66
e 48 66
e 54 66
e 57 66
e 58 66
e 19 67
e 24 67
e 32 67
e 35 67
e 41 67
e 44 67
e 65 67
e 66 67
e 2 68
e 17 68
e 24 68
e 58 68
e 5 69
e 8 69
e 24 69
e 47 69
e 61 69
e 62 69
e 2 70
e 14 70
e 27 70
e 28 70
e 37 70
e 38 70
e 17 71
e 19 71
e 30 71
e 33 71
e 40 71
e 43 71
e 50 71
e 57 71
e 1 72
e 8 72
e 42 72
e 60 72
e 61 72
e 64 72
e 65 72
e 68 72
e 69 72
e 4 73
e 5 73
e 20 73
e 30 73
e 32 73
e 35 73
e 46 73
e 47 73
e 50 73
e 51 73
e 18 74
e 30 74
e 32 74
e 33 74
e 36 74
e 46 74
e 58 74
e 61 74
e 14 75
e 16 75
e 19 75
e 22 75
e 25 75
e 27 75
e 32 75
e 47 75
e 21 76
e 23 76
e 28 76
e 30 76
e 33 76
e 42 76
e 51 76
e 52 76
e 55 76
e 70 76
e 13 77
e 23 77
e 27 77
e 33 77
e 37 77
e 42 77
e 60 77
e 66 77
e 27 78
e 35 78
e 41 78
e 53 78
e 57 78
e 58 78
e 60 78
e 7 79
e 10 79
e 11 79
e 13 79
e 16 79
e 18 79
e 30 79
e 60 79
e 66 79
e 8 80
e 13 80
e 45 80
e 55 80
e 60 80
e 62 80
e 68 80
e 75 80
e 76 80
e 6 81
e 21 81
e 25 81
e 27 81
e 36 81
e 45 81
e 62 81
e 67 81
e 71 81
e 72 81
e 75 81
e 79 81
e 29 82
e 48 82
e 54 82
e 76 82
e 5 83
e 27 83
e 30 83
e 31 83
e 33 83
e 38 83
e 65 83
e 66 83
e 68 83
e 78 83
e 13 84
e 17 84
e 33 84
e 41 84
e 43 84
e 60 84
e 65 84
e 69 84
e 74 84
e 9 85
e 27 85
e 50 85
e 63 85
e 74 85
e 3 86
e 13 86
e 33 86
e 34 86
e 66 86
e 77 86
e 29 87
e 30 87
e 46 87
e 48 87
e 63 87
e 68 87
e 75 87
e 79 87
e 83 87
e 10 88
e 31 88
e 32 88
e 43 88
e 45 88
e 50 88
e 53 88
e 71 88
e 75 88
e 77 88
e 87 88
e 3 89
e 19 89
e 34 89
e 35 89
e 57 89
e 58 89
e 71 89
e 32 90
e 43 90
e 47 90
e 78 90
e 84 90
e 89 90
e 15 91
e 52 91
e 62 91
e 69 91
e 90 91
e 6 92
e 10 92
e 15 92
e 24 92
e 28 92
e 30 92
e 39 92
e 83 92
e 89 92
e 91 92
e 15 93
e 17 93
e 19 93
e 26 93
e 39 93
e 54 93
e 63 93
e 83 93
e 89 93
e 16 94
e 19 94
e 24 94
e 27 94
e 28 94
e 32 94
e 46 94
e 49 94
e 53 94
e 61 94
e 72 94
e 6 95
e 14 95
e 26 95
e 29 95
e 41 95
e 44 95
e 50 95
e 72 95
e 76 95
e 79 95
e 14 96
e 26 96
e 41 96
e 50 96
e 68 96
e 76 96
e 82 96
e 17 97
e 23 97
e 27 97
e 56 97
e 57 97
e 72 97
e 81 97
e 82 97
e 87 97
e 92 97
e 93 97
e 8 98
e 15 98
e 17 98
e 26 98
e 72 98
e 96 98
e 5 99
e 8 99
e 14 99
e 22 99
e 34 99
e 54 99
e 67 99
e 79 99
e 95 99
e 22 100
e 27 100
e 48 100
e 64 100
e 70 100
e 77 100
e 78 100
e 83 100
e 97 100
